NAME          DCAP_3_4_2_300_SS88
ROWS
 N  OBJ
 L  CON1
 L  CON2
 L  CON3
 L  CON4
 L  CON5
 L  CON6
 L  CON7
 L  CON8
 L  CON9
 L  CON10
 L  CON11
 L  CON12
 E  CON13
 E  CON14
 E  CON15
 E  CON16
 E  CON17
 E  CON18
 E  CON19
 E  CON20
COLUMNS
    x[1,1]    OBJ       6.180167      CON1      1.000000    
    x[1,1]    CON7      -1.000000     CON8      -1.000000   
    x[1,2]    OBJ       5.039546      CON2      1.000000    
    x[1,2]    CON8      -1.000000   
    x[2,1]    OBJ       6.732585      CON3      1.000000    
    x[2,1]    CON9      -1.000000     CON10     -1.000000   
    x[2,2]    OBJ       7.443064      CON4      1.000000    
    x[2,2]    CON10     -1.000000   
    x[3,1]    OBJ       6.563535      CON5      1.000000    
    x[3,1]    CON11     -1.000000     CON12     -1.000000   
    x[3,2]    OBJ       6.054841      CON6      1.000000    
    x[3,2]    CON12     -1.000000   
    MARKER    'MARKER'                'INTORG'
    u[1,1]    OBJ       48.076654     CON1      -1.000000   
    u[1,2]    OBJ       49.466655     CON2      -1.000000   
    u[2,1]    OBJ       49.996186     CON3      -1.000000   
    u[2,2]    OBJ       32.230043     CON4      -1.000000   
    u[3,1]    OBJ       20.066487     CON5      -1.000000   
    u[3,2]    OBJ       27.484319     CON6      -1.000000   
    y[1,1,1]  OBJ       9.030320      CON7      1.469487    
    y[1,1,1]  CON13     1.000000    
    y[1,1,2]  OBJ       8.671028      CON8      1.010221    
    y[1,1,2]  CON14     1.000000    
    y[1,2,1]  OBJ       5.352100      CON7      0.632914    
    y[1,2,1]  CON15     1.000000    
    y[1,2,2]  OBJ       7.228383      CON8      0.847562    
    y[1,2,2]  CON16     1.000000    
    y[1,3,1]  OBJ       8.859769      CON7      1.123581    
    y[1,3,1]  CON17     1.000000    
    y[1,3,2]  OBJ       8.571997      CON8      1.080797    
    y[1,3,2]  CON18     1.000000    
    y[1,4,1]  OBJ       5.357850      CON7      1.264042    
    y[1,4,1]  CON19     1.000000    
    y[1,4,2]  OBJ       9.711050      CON8      1.075767    
    y[1,4,2]  CON20     1.000000    
    y[2,1,1]  OBJ       9.668184      CON9      1.469487    
    y[2,1,1]  CON13     1.000000    
    y[2,1,2]  OBJ       5.625060      CON10     1.010221    
    y[2,1,2]  CON14     1.000000    
    y[2,2,1]  OBJ       8.364487      CON9      0.632914    
    y[2,2,1]  CON15     1.000000    
    y[2,2,2]  OBJ       8.683793      CON10     0.847562    
    y[2,2,2]  CON16     1.000000    
    y[2,3,1]  OBJ       7.494026      CON9      1.123581    
    y[2,3,1]  CON17     1.000000    
    y[2,3,2]  OBJ       9.058231      CON10     1.080797    
    y[2,3,2]  CON18     1.000000    
    y[2,4,1]  OBJ       8.734218      CON9      1.264042    
    y[2,4,1]  CON19     1.000000    
    y[2,4,2]  OBJ       7.779495      CON10     1.075767    
    y[2,4,2]  CON20     1.000000    
    y[3,1,1]  OBJ       6.315375      CON11     1.469487    
    y[3,1,1]  CON13     1.000000    
    y[3,1,2]  OBJ       6.148065      CON12     1.010221    
    y[3,1,2]  CON14     1.000000    
    y[3,2,1]  OBJ       7.907747      CON11     0.632914    
    y[3,2,1]  CON15     1.000000    
    y[3,2,2]  OBJ       8.386824      CON12     0.847562    
    y[3,2,2]  CON16     1.000000    
    y[3,3,1]  OBJ       8.298729      CON11     1.123581    
    y[3,3,1]  CON17     1.000000    
    y[3,3,2]  OBJ       7.118165      CON12     1.080797    
    y[3,3,2]  CON18     1.000000    
    y[3,4,1]  OBJ       6.069965      CON11     1.264042    
    y[3,4,1]  CON19     1.000000    
    y[3,4,2]  OBJ       9.721408      CON12     1.075767    
    y[3,4,2]  CON20     1.000000    
    z[1,1]    OBJ       935.814361    CON13     1.000000    
    z[1,2]    OBJ       951.953836    CON14     1.000000    
    z[2,1]    OBJ       834.704232    CON15     1.000000    
    z[2,2]    OBJ       564.396316    CON16     1.000000    
    z[3,1]    OBJ       901.197692    CON17     1.000000    
    z[3,2]    OBJ       541.555858    CON18     1.000000    
    z[4,1]    OBJ       666.043158    CON19     1.000000    
    z[4,2]    OBJ       684.983209    CON20     1.000000    
    MARKER    'MARKER'                 'INTEND'
RHS
    RHS       CON1      -0.000000     CON2      -0.000000   
    RHS       CON3      -0.000000     CON4      -0.000000   
    RHS       CON5      -0.000000     CON6      -0.000000   
    RHS       CON7      -0.000000     CON8      -0.000000   
    RHS       CON9      -0.000000     CON10     -0.000000   
    RHS       CON11     -0.000000     CON12     -0.000000   
    RHS       CON13     1.000000      CON14     1.000000    
    RHS       CON15     1.000000      CON16     1.000000    
    RHS       CON17     1.000000      CON18     1.000000    
    RHS       CON19     1.000000      CON20     1.000000    
BOUNDS
 BV BOUND     u[1,1]  
 BV BOUND     u[1,2]  
 BV BOUND     u[2,1]  
 BV BOUND     u[2,2]  
 BV BOUND     u[3,1]  
 BV BOUND     u[3,2]  
 BV BOUND     y[1,1,1]
 BV BOUND     y[1,1,2]
 BV BOUND     y[1,2,1]
 BV BOUND     y[1,2,2]
 BV BOUND     y[1,3,1]
 BV BOUND     y[1,3,2]
 BV BOUND     y[1,4,1]
 BV BOUND     y[1,4,2]
 BV BOUND     y[2,1,1]
 BV BOUND     y[2,1,2]
 BV BOUND     y[2,2,1]
 BV BOUND     y[2,2,2]
 BV BOUND     y[2,3,1]
 BV BOUND     y[2,3,2]
 BV BOUND     y[2,4,1]
 BV BOUND     y[2,4,2]
 BV BOUND     y[3,1,1]
 BV BOUND     y[3,1,2]
 BV BOUND     y[3,2,1]
 BV BOUND     y[3,2,2]
 BV BOUND     y[3,3,1]
 BV BOUND     y[3,3,2]
 BV BOUND     y[3,4,1]
 BV BOUND     y[3,4,2]
 BV BOUND     z[1,1]  
 BV BOUND     z[1,2]  
 BV BOUND     z[2,1]  
 BV BOUND     z[2,2]  
 BV BOUND     z[3,1]  
 BV BOUND     z[3,2]  
 BV BOUND     z[4,1]  
 BV BOUND     z[4,2]  
ENDATA
